p cnf 14 64
-5 -6 12 0
5 7 -11 0
-10 -11 14 0
8 -10 -13 0
-3 12 -14 0
9 -11 13 0
-3 -4 10 0
-1 -2 -9 0
-4 8 -14 0
-3 12 13 0
-2 -6 -12 0
9 -10 -12 0
8 12 -14 0
7 -8 12 0
-1 7 -8 0
-2 -11 -14 0
1 8 14 0
1 8 13 0
-7 11 14 0
-2 -5 -11 0
4 -5 7 0
1 4 -9 0
-4 -7 -9 0
2 6 -9 0
6 9 13 0
-3 -9 12 0
5 -6 -12 0
6 -11 14 0
-1 8 10 0
9 -12 13 0
-3 8 11 0
9 11 -14 0
2 3 12 0
3 -9 -14 0
1 8 -9 0
1 5 -13 0
-2 9 -13 0
3 6 14 0
4 10 -13 0
1 -3 10 0
4 -8 11 0
-3 -6 -7 0
7 -11 12 0
10 -11 12 0
-4 10 -13 0
-1 -10 -11 0
-8 -13 -14 0
2 5 14 0
-3 -11 12 0
-9 11 -12 0
-7 -8 14 0
8 10 14 0
-5 10 -11 0
5 -9 -14 0
2 4 -6 0
4 -7 14 0
-4 -7 -8 0
-4 5 -8 0
-5 6 -14 0
4 8 -12 0
6 -13 14 0
2 11 -14 0
-10 12 -13 0
2 -4 -6 0
